(set-logic ALL)
(declare-fun i1 () Int)
(declare-fun it1028 () Int)
(declare-fun it1029 () Int)
(declare-fun it15 () Int)
(declare-fun it14 () Int)
(declare-fun it1030 () Int)
(declare-fun it1031 () Int)
(declare-fun it13 () Int)
(declare-fun bt1153 () Bool)
(declare-fun bt1154 () Bool)
(declare-fun bt1155 () Bool)
(declare-fun bt1156 () Bool)
(declare-fun it16 () Int)
(declare-fun it17 () Int)
(declare-fun it18 () Int)
(declare-fun bt25 () Bool)
(declare-fun bt28 () Bool)
(declare-fun bt26 () Bool)
(declare-fun bt27 () Bool)
(declare-fun it1036 () Int)
(declare-fun it1037 () Int)
(declare-fun it1038 () Int)
(declare-fun it1039 () Int)
(declare-fun bt1157 () Bool)
(declare-fun bt1158 () Bool)
(declare-fun bt1159 () Bool)
(declare-fun bt1160 () Bool)
(declare-fun it1042 () Int)
(declare-fun bt1161 () Bool)
(declare-fun bt1164 () Bool)
(declare-fun it1041 () Int)
(declare-fun bt1163 () Bool)
(declare-fun bt1162 () Bool)
(declare-fun it1040 () Int)
(declare-fun it1206 () Int)
(declare-fun it1207 () Int)
(declare-fun it1208 () Int)
(declare-fun it1209 () Int)
(declare-fun bt1313 () Bool)
(declare-fun bt1314 () Bool)
(declare-fun bt1315 () Bool)
(declare-fun bt1316 () Bool)
(declare-fun bt1319 () Bool)
(declare-fun bt1317 () Bool)
(declare-fun it1212 () Int)
(declare-fun it1211 () Int)
(declare-fun bt1318 () Bool)
(declare-fun it1210 () Int)
(declare-fun bt1320 () Bool)
(declare-fun it1218 () Int)
(declare-fun it1219 () Int)
(declare-fun it1220 () Int)
(declare-fun it1221 () Int)
(declare-fun bt1325 () Bool)
(declare-fun bt1326 () Bool)
(declare-fun bt1327 () Bool)
(declare-fun bt1328 () Bool)
(declare-fun it155 () Int)
(assert (= (+ i1 (- 1)) 0))
(assert (= (+ it1028 (- 2)) 0))
(assert (= (+ (* it15 (- 1)) it1029) 0))
(assert (= (+ it1030 (* it14 (- 1))) 0))
(assert (= (+ (* it13 (- 1)) it1031) 0))
(assert (or (not bt1153) (and false bt1153)))
(assert (or bt1154 (and false (not bt1154))))
(assert (or (not bt1155) (and false bt1155)))
(assert (or (not bt1156) (and false bt1156)))
(assert (and bt27
     (not bt26)
     (not bt28)
     (not bt25)
     (= (+ it18 (- 1)) 0)
     bt1154
     (= (+ it1030 (* it17 (- 1))) 0)
     (= (+ it1028 (- 2)) 0)
     (= (+ (* it16 (- 1)) it1031) 0)
     (not bt1153)
     (not bt1156)
     (not bt1155)))
(assert (= (+ it1036 (- 2)) 0))
(assert (= (+ it1037 (* it18 (- 1))) 0))
(assert (= (+ (* it17 (- 1)) it1038) 0))
(assert (= (+ (* it16 (- 1)) it1039) 0))
(assert (or (and bt27 bt1157) (and (not bt27) (not bt1157))))
(assert (or (and (not bt28) (not bt1158)) (and bt28 bt1158)))
(assert (or (and (not bt26) (not bt1159)) (and bt26 bt1159)))
(assert (or (and bt25 bt1160) (and (not bt25) (not bt1160))))
(assert (and (= (+ (* it1040 (- 1)) it1037) 0)
     (not bt1159)
     bt1157
     (not bt1162)
     (not bt1163)
     (= (+ it1038 (* it1041 (- 1))) 0)
     bt1164
     (not bt1158)
     (not bt1161)
     (<= (+ (* it1037 (- 1)) it1039) 0)
     (not bt1160)
     (= (+ it1036 (- 2)) 0)
     (= (+ it1039 (* it1042 (- 1))) 0)))
(assert (= (+ it1206 (- 2)) 0))
(assert (= (+ it1207 (* it1040 (- 1))) 0))
(assert (= (+ it1208 (* it1041 (- 1))) 0))
(assert (= (+ it1209 (* it1042 (- 1))) 0))
(assert (or (and (not bt1162) (not bt1313)) (and bt1162 bt1313)))
(assert (or (and bt1161 bt1314) (and (not bt1314) (not bt1161))))
(assert (or (and (not bt1315) (not bt1163)) (and bt1315 bt1163)))
(assert (or (and bt1164 bt1316) (and (not bt1316) (not bt1164))))
(assert (and bt1320
     (= (+ it1206 (- 2)) 0)
     (not bt1314)
     (> it1207 0)
     (= (+ (* it1210 (- 1)) it1207) 0)
     (not bt1318)
     (= (+ (* it1211 (- 1)) it1208) 0)
     (= (+ (* it1212 (- 1)) it1209) 0)
     bt1316
     bt1317
     (not bt1319)
     (not bt1313)))
(assert (= (+ it1218 (- 2)) 0))
(assert (= (+ (* it1210 (- 1)) it1219) 0))
(assert (= (+ it1220 (* it1211 (- 1))) 0))
(assert (= (+ it1221 (* it1212 (- 1))) 0))
(assert (or (and (not bt1325) (not bt1318)) (and bt1318 bt1325)))
(assert (or (and bt1326 bt1317) (and (not bt1326) (not bt1317))))
(assert (or (and (not bt1327) (not bt1319)) (and bt1327 bt1319)))
(assert (or (and bt1320 bt1328) (and (not bt1320) (not bt1328))))
(assert (let ((a!1 (+ (* (exp 2 (+ it155 (- 1))) (+ 0 it1219) (+ 0 (- 1)))
              (+ 0 it1221))))
  (and (> (+ it1221 (* it1219 (- 1))) 0)
       (not bt1327)
       (>= (+ it1218 (- 2)) 0)
       (> a!1 (+ 0 0))
       (not bt1328)
       bt1325
       (>= (+ (* it1218 (- 1)) 2) 0)
       (>= (+ it155 (- 1)) 0)
       (not bt1326)
       (> it1220 0))))
(check-sat)
